Cost: 1314
0-38-2-4-39-7-36-8-40-41-9-42-43-44-11-45-10-60-15-64-61-0
0-34-57-31-32-28-18-17-16-13-46-35-20-48-49-23-22-59-25-63-29-55-33-56-0
Cost: 1314
0-38-2-4-39-7-36-8-40-41-9-42-43-44-11-45-10-60-15-64-61-0
0-34-57-31-32-54-28-18-17-16-13-46-35-20-48-49-23-22-59-25-63-29-33-56-0
Cost: 1314
0-38-2-4-39-7-36-8-40-41-9-42-43-44-11-45-10-60-15-64-61-0
0-34-57-31-32-28-18-17-16-13-46-35-20-48-49-23-22-59-25-63-29-55-33-56-0
Cost: 1314
0-38-2-4-39-7-36-8-40-41-9-42-43-44-11-45-10-60-15-64-61-0
0-34-57-31-32-28-17-16-13-46-35-20-21-48-49-22-23-59-25-63-29-55-33-56-0
Cost: 1314
0-34-57-31-32-28-17-16-13-46-35-20-21-48-49-22-23-59-25-63-29-55-33-56-0
0-38-2-4-39-7-36-8-40-41-9-42-43-44-11-45-10-60-15-64-61-0
Cost: 1314
0-2-4-39-7-36-8-40-41-9-42-43-44-11-45-10-60-15-64-61-37-0
0-34-57-53-31-32-28-17-16-13-46-35-20-21-48-49-23-22-59-25-63-29-33-56-0
Cost: 1314
0-34-57-31-32-28-17-16-13-46-35-20-21-48-49-23-22-59-25-63-29-55-33-56-0
0-38-2-4-39-7-36-8-40-41-9-42-43-44-11-45-10-60-15-64-61-0
Cost: 1314
0-34-57-31-32-28-18-17-16-13-46-35-20-48-23-49-22-59-25-63-29-55-33-56-0
0-38-4-39-7-36-8-40-41-9-42-43-44-11-45-10-60-15-64-61-1-0
Cost: 1314
0-34-57-31-32-28-18-17-16-13-46-35-20-48-23-49-22-59-25-63-29-55-33-56-0
0-38-4-39-7-36-8-40-41-9-42-43-44-11-45-10-60-15-64-61-1-0
Cost: 1314
0-34-57-31-32-28-18-17-16-13-46-35-20-48-23-49-22-59-25-63-29-55-33-56-0
0-38-4-39-7-36-8-40-41-9-42-43-44-11-45-10-60-15-64-61-1-0
Cost: 1314
0-34-57-31-32-28-18-17-16-13-46-35-20-48-23-49-22-59-25-63-29-55-33-56-0
0-38-4-39-7-36-8-40-41-9-42-43-44-11-45-10-60-15-64-61-1-0
Cost: 1314
0-34-57-31-32-28-18-17-16-13-46-35-20-48-22-23-49-59-25-63-29-55-33-56-0
0-38-2-4-39-7-36-8-40-41-9-42-43-44-11-45-10-60-15-64-61-0
Cost: 1314
0-38-4-39-7-36-8-40-41-9-42-43-44-11-45-10-60-15-64-61-1-0
0-34-57-31-32-28-17-16-13-46-35-20-21-48-49-22-23-59-25-63-29-55-33-56-0
Cost: 1314
0-34-57-31-32-28-18-17-16-13-46-35-20-48-23-49-22-59-25-63-29-55-33-56-0
0-2-39-5-7-36-8-40-41-9-42-43-44-11-45-10-60-15-64-61-37-0
Cost: 1314
0-4-39-7-36-8-40-41-9-42-43-44-11-45-10-60-15-64-61-1-37-0
0-34-57-31-32-28-18-17-16-13-46-35-21-48-49-22-23-59-25-63-29-55-33-56-0
Cost: 1314
0-34-57-31-32-28-18-17-16-13-46-35-20-48-22-23-49-59-25-63-29-55-33-56-0
0-38-2-4-39-7-36-8-40-41-9-42-43-44-11-45-10-60-15-64-61-0
Cost: 1314
0-34-57-31-32-28-18-17-16-13-46-35-20-48-22-23-49-59-25-63-29-55-33-56-0
0-38-2-4-39-7-36-8-40-41-9-42-43-44-11-45-10-60-15-64-61-0
Cost: 1314
0-34-57-31-32-28-18-17-16-13-46-35-20-48-49-22-23-59-25-63-29-55-33-56-0
0-4-39-7-36-8-40-41-9-42-43-44-11-45-10-60-15-64-61-1-37-0
Cost: 1314
0-34-57-31-32-28-18-17-16-13-46-35-20-48-22-23-49-59-25-63-29-55-33-56-0
0-38-2-4-39-7-36-8-40-41-9-42-43-44-11-45-10-60-15-64-61-0
Cost: 1314
0-39-5-7-36-8-40-41-9-42-43-44-11-45-10-60-15-64-61-1-37-0
0-34-57-31-32-54-28-18-17-16-13-46-35-20-48-49-22-23-59-25-63-29-33-56-0
Cost: 1314
0-2-39-5-7-36-8-40-41-9-42-43-44-11-45-10-60-15-64-61-37-0
0-34-57-31-32-28-18-17-16-13-46-35-20-48-49-23-22-59-25-63-29-55-33-56-0
Cost: 1314
0-34-57-31-32-28-17-16-13-46-35-20-21-48-49-23-22-59-25-63-29-55-33-56-0
0-38-2-4-39-7-36-8-40-41-9-42-43-44-11-45-10-60-15-64-61-0
Cost: 1314
0-34-57-31-32-28-17-16-13-46-35-20-21-48-49-23-22-59-25-63-29-55-33-56-0
0-38-2-4-39-7-36-8-40-41-9-42-43-44-11-45-10-60-15-64-61-0
Cost: 1314
0-4-39-7-36-8-40-41-9-42-43-44-11-45-10-60-15-64-61-1-37-0
0-34-57-31-32-28-17-16-13-46-35-20-21-48-23-49-22-59-25-63-29-55-33-56-0
Cost: 1314
0-4-39-7-36-8-40-41-9-42-43-44-11-45-10-60-15-64-61-1-37-0
0-34-57-31-32-28-17-16-13-46-35-20-21-48-23-49-22-59-25-63-29-55-33-56-0
Cost: 1314
0-34-57-31-32-28-18-17-16-13-46-35-20-48-23-49-22-59-25-63-29-55-33-56-0
0-38-2-39-5-7-36-8-40-41-9-42-43-44-11-45-10-60-15-64-61-0
Cost: 1314
0-4-39-7-36-8-40-41-9-42-43-44-11-45-10-60-15-64-61-1-37-0
0-34-57-31-32-28-17-16-13-46-35-20-21-48-23-49-22-59-25-63-29-55-33-56-0
Cost: 1314
0-2-39-5-7-36-8-40-41-9-42-43-44-11-45-10-60-15-64-61-37-0
0-34-57-31-32-28-18-17-16-13-46-35-20-48-49-23-22-59-25-63-29-55-33-56-0
Cost: 1314
0-34-57-31-32-28-17-16-13-46-35-20-21-48-49-23-22-59-25-63-29-55-33-56-0
0-38-2-4-39-7-36-8-40-41-9-42-43-44-11-45-10-60-15-64-61-0
Cost: 1314
0-34-57-31-32-28-17-16-13-46-35-20-21-48-49-23-22-59-25-63-29-55-33-56-0
0-38-2-4-39-7-36-8-40-41-9-42-43-44-11-45-10-60-15-64-61-0
Cost: 1314
0-2-4-39-7-36-8-40-41-9-42-43-44-11-45-10-60-15-64-61-37-0
0-34-57-31-32-54-28-18-17-16-13-46-35-20-48-49-22-23-59-25-63-29-33-56-0
Cost: 1342
0-38-4-39-7-36-8-40-41-9-42-43-44-11-45-10-60-15-16-17-18-61-1-0
0-34-57-53-31-32-28-64-13-46-35-48-21-23-49-22-59-25-63-29-33-56-0
Cost: 1340
0-34-57-53-31-32-28-64-13-46-35-21-48-22-23-49-59-25-63-29-33-56-0
0-2-39-5-7-36-8-40-41-9-42-43-44-11-45-10-60-15-16-17-18-61-37-0
Cost: 1314
0-34-57-31-32-28-18-17-16-13-46-35-20-48-49-22-23-59-25-63-29-55-33-56-0
0-38-2-4-39-7-36-8-40-41-9-42-43-44-11-45-10-60-15-64-61-0
Cost: 1314
0-34-57-31-32-28-18-17-16-13-46-35-21-48-23-49-22-59-25-63-29-55-33-56-0
0-38-2-39-5-7-36-8-40-41-9-42-43-44-11-45-10-60-15-64-61-0
